# Objective value = 3.0010190714601453e+02
x[0] 0
x[1] 1
x[2] 0
x[3] 0
x[4] 0
x[5] 0
x[6] 0
x[7] 0
x[8] 0
x[9] 0
x[10] 1
x[11] 0
x[12] 1
x[13] 1
x[14] 1
x[15] 1
x[16] 1
x[17] 1
x[18] 1
x[19] 0
x[20] 1
x[21] 1
x[22] 1
x[23] 1
x[24] 0
x[25] 0
x[26] 0
x[27] 1
x[28] 1
x[29] 0
x[30] 0
x[31] 0
x[32] 1
x[33] 1
x[34] 1
x[35] 1
x[36] 1
x[37] 0
x[38] 1
x[39] 0
x[40] 0
x[41] 0
x[42] 0
x[43] 0
x[44] 1
x[45] 0
x[46] 1
x[47] 0
x[48] 0
x[49] 1
x[50] 1
x[51] 1
x[52] 1
x[53] 1
x[54] 1
x[55] 1
x[56] 0
x[57] 0
x[58] 0
x[59] 0
x[60] 0
x[61] 0
x[62] 0
x[63] 1
x[64] 0
x[65] 0
x[66] 0
x[67] 0
x[68] 0
x[69] 1
x[70] 0
x[71] 0
x[72] 1
x[73] 1
x[74] 0
x[75] 1
x[76] 0
x[77] 1
x[78] 1
x[79] 0
x[80] 0
x[81] 0
x[82] 1
x[83] 0
x[84] 0
x[85] 0
x[86] 0
x[87] 1
x[88] 1
x[89] 1
x[90] 1
x[91] 1
x[92] 1
x[93] 0
x[94] 1
x[95] 1
x[96] 1
x[97] 1
x[98] 0
x[99] 0
x[100] 1
x[101] 0
x[102] 1
x[103] 1
x[104] 1
x[105] 0
x[106] 1
x[107] 0
x[108] 1
x[109] 1
x[110] 0
x[111] 1
x[112] 0
x[113] 0
x[114] 1
x[115] 1
x[116] 1
x[117] 0
x[118] 0
x[119] 1
x[120] 1
x[121] 0
x[122] 1
x[123] 1
x[124] 1
x[125] 0
x[126] 1
x[127] 1
x[128] 0
x[129] 0
x[130] 0
x[131] 0
x[132] 0
x[133] 1
x[134] 0
x[135] 1
x[136] 1
x[137] 0
x[138] 1
x[139] 1
x[140] 1
x[141] 1
x[142] 0
x[143] 0
x[144] 0
x[145] 0
x[146] 0
x[147] 0
x[148] 1
x[149] 1
x[150] 0
x[151] 0
x[152] 0
x[153] 1
x[154] 1
x[155] 0
x[156] 1
x[157] 1
x[158] 1
x[159] 1
x[160] 1
x[161] 1
x[162] 1
x[163] 1
x[164] 1
x[165] 1
x[166] 0
x[167] 1
x[168] 1
x[169] 0
x[170] 1
x[171] 1
x[172] 1
x[173] 1
x[174] 1
x[175] 0
x[176] 0
x[177] 1
x[178] 0
x[179] 1
x[180] 0
x[181] 0
x[182] 1
x[183] 1
x[184] 1
x[185] 0
x[186] 0
x[187] 0
x[188] 0
x[189] 0
x[190] 0
x[191] 0
x[192] 1
x[193] 0
x[194] 0
x[195] 0
x[196] 0
x[197] 1
x[198] 1
x[199] 0
x[200] 0
x[201] 0
x[202] 0
x[203] 0
x[204] 1
x[205] 1
x[206] 0
x[207] 0
x[208] 0
x[209] 1
x[210] 0
x[211] 0
x[212] 0
x[213] 0
x[214] 1
x[215] 1
x[216] 0
x[217] 0
x[218] 1
x[219] 0
x[220] 0
x[221] 1
x[222] 0
x[223] 1
x[224] 1
x[225] 0
x[226] 1
x[227] 0
x[228] 0
x[229] 0
x[230] 1
x[231] 1
x[232] 1
x[233] 0
x[234] 0
x[235] 0
x[236] 0
x[237] 0
x[238] 0
x[239] 1
x[240] 1
x[241] 1
x[242] 0
x[243] 1
x[244] 1
x[245] 0
x[246] 0
x[247] 1
x[248] 1
x[249] 0
x[250] 0
x[251] 1
x[252] 0
x[253] 1
x[254] 1
x[255] 0
x[256] 1
x[257] 0
x[258] 1
x[259] 1
x[260] 1
x[261] 0
x[262] 1
x[263] 0
x[264] 0
x[265] 1
x[266] 0
x[267] 0
x[268] 1
x[269] 1
x[270] 1
x[271] 0
x[272] 1
x[273] 1
x[274] 1
x[275] 1
x[276] 0
x[277] 0
x[278] 0
x[279] 1
x[280] 1
x[281] 0
x[282] 1
x[283] 0
x[284] 1
x[285] 0
x[286] 0
x[287] 1
x[288] 1
x[289] 1
x[290] 0
x[291] 0
x[292] 1
x[293] 0
x[294] 0
x[295] 0
x[296] 0
x[297] 1
x[298] 1
x[299] 1
x[300] 1
x[301] 1
x[302] 0
x[303] 0
x[304] 0
x[305] 1
x[306] 0
x[307] 1
x[308] 0
x[309] 1
x[310] 1
x[311] 1
x[312] 1
x[313] 1
x[314] 1
x[315] 1
x[316] 0
x[317] 0
x[318] 1
x[319] 1
x[320] 0
x[321] 1
x[322] 0
x[323] 1
x[324] 1
x[325] 0
x[326] 1
x[327] 0
x[328] 0
x[329] 0
x[330] 0
x[331] 1
x[332] 1
x[333] 0
x[334] 1
x[335] 1
x[336] 1
x[337] 0
x[338] 0
x[339] 0
x[340] 0
x[341] 0
x[342] 1
x[343] 1
x[344] 0
x[345] 0
x[346] 0
x[347] 0
x[348] 1
x[349] 1
x[350] 0
x[351] 1
x[352] 0
x[353] 1
x[354] 1
x[355] 0
x[356] 1
x[357] 1
x[358] 0
x[359] 0
x[360] 0
x[361] 0
x[362] 0
x[363] 1
x[364] 0
x[365] 0
x[366] 1
x[367] 0
x[368] 1
x[369] 1
x[370] 0
x[371] 0
x[372] 0
x[373] 0
x[374] 0
x[375] 0
x[376] 1
x[377] 1
x[378] 0
x[379] 0
x[380] 0
x[381] 1
x[382] 0
x[383] 1
x[384] 0
x[385] 1
x[386] 1
x[387] 1
x[388] 1
x[389] 1
x[390] 0
x[391] 0
x[392] 0
x[393] 0
x[394] 1
x[395] 0
x[396] 1
x[397] 0
x[398] 0
x[399] 0
x[400] 0
x[401] 0
x[402] 0
x[403] 0
x[404] 0
x[405] 0
x[406] 1
x[407] 0
x[408] 1
x[409] 1
x[410] 0
x[411] 0
x[412] 1
x[413] 1
x[414] 0
x[415] 0
x[416] 1
x[417] 1
x[418] 1
x[419] 1
x[420] 0
x[421] 1
x[422] 1
x[423] 0
x[424] 1
x[425] 0
x[426] 1
x[427] 0
x[428] 0
x[429] 0
x[430] 1
x[431] 0
x[432] 0
x[433] 0
x[434] 0
x[435] 1
x[436] 0
x[437] 0
x[438] 1
x[439] 0
x[440] 1
x[441] 1
x[442] 0
x[443] 0
x[444] 1
x[445] 0
x[446] 1
x[447] 1
x[448] 1
x[449] 0
x[450] 1
x[451] 1
x[452] 1
x[453] 1
x[454] 1
x[455] 1
x[456] 0
x[457] 0
x[458] 1
x[459] 1
x[460] 0
x[461] 0
x[462] 1
x[463] 0
x[464] 0
x[465] 1
x[466] 1
x[467] 0
x[468] 0
x[469] 1
x[470] 1
x[471] 1
x[472] 1
x[473] 1
x[474] 0
x[475] 0
x[476] 0
x[477] 1
x[478] 1
x[479] 1
x[480] 1
x[481] 0
x[482] 0
x[483] 0
x[484] 0
x[485] 0
x[486] 1
x[487] 1
x[488] 1
x[489] 1
x[490] 1
x[491] 1
x[492] 0
x[493] 1
x[494] 1
x[495] 1
x[496] 0
x[497] 0
x[498] 1
x[499] 1
x[500] 1
x[501] 0
x[502] 0
x[503] 0
x[504] 1
x[505] 1
x[506] 0
x[507] 1
x[508] 0
x[509] 0
x[510] 1
x[511] 1
x[512] 0
x[513] 0
x[514] 1
x[515] 0
x[516] 1
x[517] 1
x[518] 0
x[519] 0
x[520] 0
x[521] 0
x[522] 0
x[523] 0
x[524] 1
x[525] 1
x[526] 1
x[527] 0
x[528] 1
x[529] 0
x[530] 0
x[531] 0
x[532] 1
x[533] 1
x[534] 1
x[535] 1
x[536] 0
x[537] 1
x[538] 1
x[539] 1
x[540] 0
x[541] 0
x[542] 1
x[543] 0
x[544] 1
x[545] 1
x[546] 1
x[547] 1
x[548] 1
x[549] 0
x[550] 0
x[551] 0
x[552] 0
x[553] 1
x[554] 0
x[555] 0
x[556] 1
x[557] 1
x[558] 1
x[559] 0
x[560] 1
x[561] 0
x[562] 1
x[563] 1
x[564] 0
x[565] 1
x[566] 0
x[567] 0
x[568] 1
x[569] 0
x[570] 0
x[571] 1
x[572] 1
x[573] 0
x[574] 1
x[575] 1
x[576] 1
x[577] 1
x[578] 0
x[579] 0
x[580] 0
x[581] 0
x[582] 1
x[583] 1
x[584] 0
x[585] 1
x[586] 0
x[587] 0
x[588] 0
x[589] 0
x[590] 0
x[591] 1
x[592] 1
x[593] 0
x[594] 0
x[595] 0
x[596] 0
x[597] 0
x[598] 0
x[599] 1
x[600] 0
x[601] 0
x[602] 0
x[603] 1
x[604] 1
x[605] 0
x[606] 1
x[607] 0
x[608] 1
x[609] 1
x[610] 1
x[611] 0
x[612] 0
x[613] 0
x[614] 0
x[615] 1
x[616] 0
x[617] 1
x[618] 1
x[619] 1
x[620] 0
x[621] 1
x[622] 1
x[623] 1
x[624] 1
x[625] 1
x[626] 0
x[627] 1
x[628] 0
x[629] 1
x[630] 0
x[631] 0
x[632] 0
x[633] 0
x[634] 1
x[635] 0
x[636] 0
x[637] 1
x[638] 1
x[639] 0
x[640] 1
x[641] 1
x[642] 0
x[643] 0
x[644] 0
x[645] 0
x[646] 0
x[647] 0
x[648] 0
x[649] 0
x[650] 1
x[651] 1
x[652] 1
x[653] 0
x[654] 1
x[655] 1
x[656] 0
x[657] 0
x[658] 0
x[659] 0
x[660] 0
x[661] 0
x[662] 1
x[663] 1
x[664] 1
x[665] 0
x[666] 0
x[667] 0
x[668] 1
x[669] 0
x[670] 1
x[671] 0
x[672] 0
x[673] 1
x[674] 0
x[675] 1
x[676] 0
x[677] 0
x[678] 1
x[679] 0
x[680] 1
x[681] 1
x[682] 0
x[683] 1
x[684] 0
x[685] 1
x[686] 1
x[687] 1
x[688] 0
x[689] 1
x[690] 1
x[691] 0
x[692] 1
x[693] 1
x[694] 0
x[695] 1
x[696] 1
x[697] 0
x[698] 0
x[699] 0
x[700] 0
x[701] 1
x[702] 0
x[703] 0
x[704] 1
x[705] 1
x[706] 1
x[707] 0
x[708] 0
x[709] 1
x[710] 0
x[711] 1
x[712] 0
x[713] 1
x[714] 0
x[715] 0
x[716] 1
x[717] 1
x[718] 1
x[719] 0
x[720] 0
x[721] 1
x[722] 1
x[723] 0
x[724] 0
x[725] 1
x[726] 1
x[727] 0
x[728] 1
x[729] 0
x[730] 1
x[731] 0
x[732] 1
x[733] 1
x[734] 0
x[735] 0
x[736] 0
x[737] 0
x[738] 1
x[739] 1
x[740] 1
x[741] 1
x[742] 0
x[743] 0
x[744] 0
x[745] 1
x[746] 1
x[747] 0
x[748] 0
x[749] 1
x[750] 0
x[751] 0
x[752] 0
x[753] 0
x[754] 1
x[755] 1
x[756] 0
x[757] 1
x[758] 1
x[759] 1
x[760] 1
x[761] 0
x[762] 1
x[763] 0
x[764] 0
x[765] 1
x[766] 0
x[767] 0
x[768] 0
x[769] 1
x[770] 0
x[771] 0
x[772] 1
x[773] 1
x[774] 0
x[775] 1
x[776] 1
x[777] 0
x[778] 1
x[779] 1
x[780] 1
x[781] 1
x[782] 0
x[783] 1
x[784] 1
x[785] 0
x[786] 0
x[787] 0
x[788] 0
x[789] 0
x[790] 0
x[791] 0
x[792] 0
x[793] 1
x[794] 0
x[795] 1
x[796] 1
x[797] 0
x[798] 0
x[799] 0
x[800] 1
x[801] 0
x[802] 1
x[803] 0
x[804] 1
x[805] 1
x[806] 0
x[807] 0
x[808] 1
x[809] 0
x[810] 0
x[811] 1
x[812] 1
x[813] 0
x[814] 0
x[815] 1
x[816] 1
x[817] 1
x[818] 0
x[819] 0
x[820] 1
x[821] 1
x[822] 1
x[823] 0
x[824] 0
x[825] 1
x[826] 1
x[827] 0
x[828] 1
x[829] 0
x[830] 1
x[831] 1
x[832] 1
x[833] 1
x[834] 1
x[835] 0
x[836] 0
x[837] 0
x[838] 0
x[839] 0
x[840] 1
x[841] 0
x[842] 1
x[843] 1
x[844] 1
x[845] 1
x[846] 0
x[847] 0
x[848] 1
x[849] 1
x[850] 0
x[851] 0
x[852] 1
x[853] 1
x[854] 1
x[855] 0
x[856] 1
x[857] 0
x[858] 0
x[859] 0
x[860] 0
x[861] 0
x[862] 1
x[863] 0
x[864] 1
x[865] 1
x[866] 1
x[867] 0
x[868] 1
x[869] 0
x[870] 0
x[871] 0
x[872] 0
x[873] 0
x[874] 1
x[875] 0
x[876] 1
x[877] 0
x[878] 1
x[879] 1
x[880] 0
x[881] 1
x[882] 1
x[883] 0
x[884] 0
x[885] 1
x[886] 1
x[887] 0
x[888] 0
x[889] 0
x[890] 0
x[891] 0
x[892] 1
x[893] 0
x[894] 1
x[895] 0
x[896] 0
x[897] 0
x[898] 1
x[899] 0
x[900] 0
x[901] 0
x[902] 0
x[903] 1
x[904] 1
x[905] 0
x[906] 0
x[907] 0
x[908] 0
x[909] 1
x[910] 1
x[911] 1
x[912] 1
x[913] 1
x[914] 0
x[915] 0
x[916] 0
x[917] 0
x[918] 1
x[919] 1
x[920] 0
x[921] 1
x[922] 0
x[923] 0
x[924] 1
x[925] 1
x[926] 0
x[927] 0
x[928] 0
x[929] 1
x[930] 1
x[931] 1
x[932] 0
x[933] 0
x[934] 1
x[935] 0
x[936] 0
x[937] 0
x[938] 0
x[939] 1
x[940] 0
x[941] 0
x[942] 0
x[943] 0
x[944] 0
x[945] 1
x[946] 1
x[947] 1
x[948] 0
x[949] 0
x[950] 1
x[951] 0
x[952] 1
x[953] 1
x[954] 0
x[955] 1
x[956] 1
x[957] 1
x[958] 1
x[959] 0
x[960] 0
x[961] 1
x[962] 0
x[963] 1
x[964] 0
x[965] 0
x[966] 0
x[967] 1
x[968] 1
x[969] 1
x[970] 1
x[971] 1
x[972] 1
x[973] 1
x[974] 0
x[975] 1
x[976] 0
x[977] 1
x[978] 0
x[979] 1
x[980] 0
x[981] 0
x[982] 0
x[983] 1
x[984] 0
x[985] 0
x[986] 0
x[987] 0
x[988] 0
x[989] 1
x[990] 1
x[991] 0
x[992] 1
x[993] 1
x[994] 0
x[995] 0
x[996] 1
x[997] 0
x[998] 0
x[999] 0
